! 01-2-2 エミッタフォロア (RL を外し CH1 の 50 Ω を負荷にする) の計算値 — 実測ではない
! ハイブリッド π: Ie 0.83 mA, hFE 150, fT 40 MHz (Ic 0.83 mA のとき), Cob 3 pF (VCB 約 4 V), rbb' 50 Ω, R1 22k / R2 10k, RE 1k, CIN/COUT 10 uF
! 板とクリップの寄生分: クリップのリード 80 nH ずつ (入力・出力)、各節点の浮遊容量 5 pF
# HZ S MA R 50
50000 0.977342 -0.112 1.190848 0.135 0.008017 10.440 0.237648 -179.185
549750 0.977022 -1.214 1.190594 -1.025 0.017720 61.793 0.237783 176.070
1049500 0.976173 -2.315 1.189894 -1.985 0.031279 71.970 0.238224 172.358
1549250 0.974797 -3.414 1.188760 -2.936 0.045314 74.914 0.238937 168.699
2049000 0.972901 -4.508 1.187197 -3.882 0.059433 75.681 0.239914 165.076
2548750 0.970494 -5.597 1.185215 -4.822 0.073527 75.525 0.241146 161.493
3048500 0.967585 -6.679 1.182823 -5.757 0.087545 74.896 0.242622 157.956
3548250 0.964189 -7.753 1.180032 -6.684 0.101453 73.997 0.244329 154.471
4048000 0.960321 -8.817 1.176857 -7.604 0.115224 72.930 0.246253 151.042
4547750 0.955995 -9.871 1.173312 -8.515 0.128837 71.756 0.248377 147.677
5047500 0.951232 -10.913 1.169413 -9.416 0.142274 70.509 0.250685 144.378
5547250 0.946050 -11.942 1.165179 -10.307 0.155516 69.213 0.253159 141.150
6047000 0.940469 -12.958 1.160627 -11.187 0.168550 67.885 0.255783 137.996
6546750 0.934513 -13.958 1.155778 -12.055 0.181362 66.536 0.258538 134.917
7046500 0.928201 -14.944 1.150652 -12.911 0.193941 65.174 0.261407 131.916
7546250 0.921559 -15.913 1.145269 -13.753 0.206274 63.805 0.264373 128.993
8046000 0.914608 -16.865 1.139650 -14.583 0.218355 62.434 0.267420 126.148
8545750 0.907372 -17.800 1.133816 -15.398 0.230175 61.065 0.270532 123.382
9045500 0.899875 -18.716 1.127787 -16.199 0.241729 59.700 0.273695 120.694
9545250 0.892139 -19.614 1.121584 -16.986 0.253011 58.344 0.276895 118.084
10045000 0.884188 -20.493 1.115228 -17.758 0.264018 56.996 0.280119 115.549
10544750 0.876043 -21.353 1.108738 -18.514 0.274747 55.659 0.283355 113.089
11044500 0.867726 -22.192 1.102132 -19.256 0.285197 54.335 0.286593 110.702
11544250 0.859259 -23.012 1.095430 -19.983 0.295369 53.023 0.289822 108.387
12044000 0.850661 -23.812 1.088649 -20.695 0.305261 51.726 0.293034 106.142
12543750 0.841953 -24.592 1.081807 -21.391 0.314877 50.444 0.296220 103.964
13043500 0.833153 -25.351 1.074918 -22.073 0.324217 49.176 0.299375 101.852
13543250 0.824278 -26.090 1.067998 -22.740 0.333285 47.925 0.302492 99.804
14043000 0.815346 -26.809 1.061061 -23.392 0.342085 46.689 0.305565 97.817
14542750 0.806373 -27.508 1.054121 -24.030 0.350620 45.470 0.308589 95.890
15042500 0.797372 -28.186 1.047190 -24.653 0.358896 44.267 0.311562 94.021
15542250 0.788359 -28.845 1.040280 -25.262 0.366916 43.081 0.314480 92.208
16042000 0.779346 -29.484 1.033401 -25.858 0.374687 41.912 0.317339 90.449
16541750 0.770346 -30.103 1.026563 -26.440 0.382213 40.758 0.320138 88.742
17041500 0.761369 -30.703 1.019774 -27.009 0.389501 39.622 0.322875 87.085
17541250 0.752426 -31.283 1.013044 -27.565 0.396558 38.501 0.325549 85.476
18041000 0.743527 -31.845 1.006378 -28.108 0.403388 37.397 0.328159 83.914
18540750 0.734679 -32.388 0.999785 -28.640 0.409998 36.309 0.330704 82.397
19040500 0.725892 -32.913 0.993269 -29.160 0.416394 35.236 0.333184 80.923
19540250 0.717173 -33.419 0.986837 -29.668 0.422584 34.179 0.335599 79.491
20040000 0.708527 -33.908 0.980492 -30.165 0.428573 33.138 0.337950 78.099
20539750 0.699960 -34.379 0.974238 -30.651 0.434367 32.111 0.340236 76.746
21039500 0.691479 -34.834 0.968080 -31.127 0.439973 31.100 0.342459 75.430
21539250 0.683088 -35.271 0.962019 -31.594 0.445396 30.103 0.344618 74.150
22039000 0.674790 -35.692 0.956059 -32.050 0.450644 29.120 0.346715 72.904
22538750 0.666589 -36.096 0.950201 -32.497 0.455722 28.151 0.348752 71.692
23038500 0.658489 -36.485 0.944448 -32.936 0.460636 27.196 0.350728 70.512
23538250 0.650492 -36.858 0.938800 -33.365 0.465391 26.254 0.352646 69.362
24038000 0.642601 -37.216 0.933258 -33.787 0.469994 25.326 0.354505 68.243
24537750 0.634818 -37.559 0.927823 -34.200 0.474449 24.410 0.356308 67.152
25037500 0.627143 -37.888 0.922496 -34.606 0.478763 23.506 0.358056 66.089
25537250 0.619580 -38.202 0.917276 -35.005 0.482939 22.615 0.359750 65.053
26037000 0.612127 -38.502 0.912163 -35.397 0.486985 21.736 0.361392 64.042
26536750 0.604787 -38.789 0.907156 -35.782 0.490903 20.868 0.362982 63.056
27036500 0.597559 -39.063 0.902256 -36.161 0.494699 20.012 0.364521 62.094
27536250 0.590445 -39.323 0.897462 -36.534 0.498378 19.167 0.366012 61.155
28036000 0.583443 -39.571 0.892772 -36.902 0.501944 18.332 0.367456 60.238
28535750 0.576555 -39.806 0.888186 -37.263 0.505402 17.508 0.368853 59.342
29035500 0.569779 -40.030 0.883702 -37.620 0.508754 16.694 0.370205 58.467
29535250 0.563116 -40.241 0.879320 -37.971 0.512006 15.890 0.371514 57.612
30035000 0.556564 -40.441 0.875037 -38.318 0.515162 15.096 0.372779 56.777
30534750 0.550123 -40.630 0.870853 -38.660 0.518224 14.311 0.374003 55.960
31034500 0.543793 -40.808 0.866767 -38.998 0.521197 13.535 0.375187 55.160
31534250 0.537572 -40.975 0.862775 -39.332 0.524084 12.768 0.376331 54.378
32034000 0.531460 -41.131 0.858878 -39.663 0.526888 12.010 0.377438 53.613
32533750 0.525455 -41.278 0.855074 -39.989 0.529612 11.261 0.378507 52.864
33033500 0.519556 -41.414 0.851360 -40.312 0.532260 10.519 0.379539 52.130
33533250 0.513763 -41.541 0.847735 -40.632 0.534835 9.786 0.380537 51.411
34033000 0.508074 -41.659 0.844199 -40.949 0.537339 9.061 0.381500 50.707
34532750 0.502487 -41.767 0.840748 -41.263 0.539775 8.343 0.382430 50.017
35032500 0.497003 -41.867 0.837381 -41.575 0.542146 7.632 0.383327 49.341
35532250 0.491618 -41.958 0.834097 -41.884 0.544454 6.928 0.384192 48.677
36032000 0.486332 -42.040 0.830894 -42.190 0.546702 6.232 0.385027 48.026
36531750 0.481144 -42.114 0.827770 -42.494 0.548892 5.542 0.385831 47.388
37031500 0.476052 -42.181 0.824724 -42.796 0.551026 4.859 0.386606 46.761
37531250 0.471054 -42.239 0.821754 -43.097 0.553106 4.183 0.387352 46.145
38031000 0.466150 -42.290 0.818858 -43.395 0.555135 3.512 0.388070 45.541
38530750 0.461338 -42.334 0.816036 -43.692 0.557114 2.848 0.388760 44.947
39030500 0.456616 -42.371 0.813284 -43.987 0.559046 2.189 0.389424 44.364
39530250 0.451984 -42.401 0.810602 -44.281 0.560932 1.537 0.390062 43.790
40030000 0.447439 -42.424 0.807989 -44.573 0.562774 0.890 0.390674 43.227
40529750 0.442981 -42.441 0.805442 -44.864 0.564573 0.248 0.391260 42.672
41029500 0.438607 -42.451 0.802961 -45.154 0.566332 -0.388 0.391822 42.127
41529250 0.434317 -42.456 0.800543 -45.443 0.568052 -1.020 0.392361 41.590
42029000 0.430108 -42.455 0.798188 -45.731 0.569734 -1.646 0.392875 41.062
42528750 0.425981 -42.448 0.795894 -46.018 0.571380 -2.267 0.393366 40.542
43028500 0.421932 -42.436 0.793660 -46.305 0.572991 -2.884 0.393834 40.030
43528250 0.417962 -42.418 0.791484 -46.590 0.574569 -3.496 0.394280 39.525
44028000 0.414068 -42.396 0.789365 -46.876 0.576114 -4.103 0.394704 39.028
44527750 0.410249 -42.368 0.787302 -47.160 0.577629 -4.706 0.395107 38.538
45027500 0.406504 -42.337 0.785293 -47.444 0.579114 -5.305 0.395488 38.055
45527250 0.402831 -42.300 0.783338 -47.728 0.580570 -5.900 0.395848 37.579
46027000 0.399230 -42.260 0.781435 -48.012 0.581999 -6.491 0.396187 37.109
46526750 0.395698 -42.215 0.779583 -48.295 0.583402 -7.078 0.396506 36.645
47026500 0.392235 -42.167 0.777781 -48.578 0.584779 -7.661 0.396804 36.188
47526250 0.388839 -42.115 0.776028 -48.860 0.586132 -8.240 0.397083 35.736
48026000 0.385508 -42.059 0.774323 -49.143 0.587462 -8.816 0.397342 35.290
48525750 0.382243 -42.000 0.772664 -49.426 0.588769 -9.388 0.397581 34.849
49025500 0.379041 -41.939 0.771051 -49.709 0.590055 -9.957 0.397801 34.414
49525250 0.375901 -41.874 0.769482 -49.991 0.591320 -10.523 0.398003 33.984
50025000 0.372821 -41.806 0.767957 -50.274 0.592565 -11.085 0.398185 33.559
50524750 0.369802 -41.736 0.766475 -50.557 0.593790 -11.644 0.398348 33.139
51024500 0.366840 -41.664 0.765035 -50.841 0.594998 -12.200 0.398493 32.723
51524250 0.363936 -41.589 0.763636 -51.124 0.596188 -12.754 0.398619 32.312
52024000 0.361088 -41.512 0.762277 -51.408 0.597361 -13.304 0.398727 31.905
52523750 0.358295 -41.434 0.760958 -51.692 0.598518 -13.852 0.398816 31.502
53023500 0.355556 -41.354 0.759676 -51.977 0.599659 -14.397 0.398888 31.104
53523250 0.352869 -41.272 0.758433 -52.261 0.600785 -14.939 0.398941 30.709
54023000 0.350233 -41.189 0.757226 -52.547 0.601897 -15.478 0.398976 30.318
54522750 0.347648 -41.105 0.756055 -52.832 0.602996 -16.016 0.398994 29.931
55022500 0.345111 -41.020 0.754920 -53.119 0.604081 -16.550 0.398993 29.547
55522250 0.342623 -40.934 0.753819 -53.405 0.605154 -17.083 0.398975 29.167
56022000 0.340181 -40.848 0.752753 -53.693 0.606215 -17.613 0.398938 28.790
56521750 0.337786 -40.761 0.751720 -53.980 0.607264 -18.141 0.398884 28.416
57021500 0.335434 -40.674 0.750719 -54.269 0.608303 -18.667 0.398812 28.045
57521250 0.333127 -40.586 0.749750 -54.558 0.609331 -19.191 0.398723 27.677
58021000 0.330861 -40.499 0.748813 -54.847 0.610348 -19.712 0.398615 27.312
58520750 0.328638 -40.412 0.747906 -55.138 0.611357 -20.232 0.398490 26.950
59020500 0.326454 -40.325 0.747030 -55.429 0.612356 -20.750 0.398347 26.590
59520250 0.324310 -40.239 0.746183 -55.721 0.613347 -21.266 0.398186 26.233
60020000 0.322204 -40.153 0.745366 -56.013 0.614329 -21.780 0.398007 25.878
60519750 0.320135 -40.068 0.744576 -56.306 0.615303 -22.293 0.397810 25.526
61019500 0.318103 -39.985 0.743815 -56.600 0.616270 -22.804 0.397595 25.175
61519250 0.316105 -39.902 0.743082 -56.895 0.617230 -23.313 0.397362 24.827
62019000 0.314142 -39.821 0.742375 -57.191 0.618183 -23.821 0.397111 24.481
62518750 0.312212 -39.741 0.741695 -57.487 0.619130 -24.327 0.396842 24.137
63018500 0.310315 -39.662 0.741041 -57.785 0.620070 -24.832 0.396554 23.795
63518250 0.308448 -39.586 0.740412 -58.083 0.621005 -25.335 0.396249 23.455
64018000 0.306612 -39.511 0.739808 -58.382 0.621935 -25.837 0.395924 23.117
64517750 0.304805 -39.438 0.739229 -58.682 0.622859 -26.337 0.395581 22.780
65017500 0.303026 -39.368 0.738675 -58.983 0.623779 -26.837 0.395220 22.445
65517250 0.301274 -39.300 0.738144 -59.285 0.624694 -27.335 0.394840 22.111
66017000 0.299549 -39.234 0.737637 -59.588 0.625605 -27.832 0.394441 21.779
66516750 0.297850 -39.171 0.737153 -59.892 0.626512 -28.328 0.394022 21.448
67016500 0.296175 -39.110 0.736691 -60.196 0.627415 -28.823 0.393585 21.118
67516250 0.294523 -39.053 0.736252 -60.502 0.628315 -29.316 0.393128 20.790
68016000 0.292895 -38.998 0.735834 -60.809 0.629211 -29.809 0.392652 20.462
68515750 0.291288 -38.946 0.735438 -61.117 0.630105 -30.301 0.392157 20.136
69015500 0.289702 -38.898 0.735064 -61.426 0.630996 -30.792 0.391642 19.811
69515250 0.288136 -38.853 0.734710 -61.736 0.631884 -31.282 0.391106 19.487
70015000 0.286589 -38.812 0.734377 -62.047 0.632771 -31.771 0.390551 19.163
70514750 0.285061 -38.774 0.734064 -62.359 0.633655 -32.259 0.389976 18.841
71014500 0.283550 -38.740 0.733771 -62.672 0.634537 -32.747 0.389380 18.519
71514250 0.282055 -38.710 0.733498 -62.986 0.635417 -33.234 0.388764 18.198
72014000 0.280576 -38.684 0.733244 -63.302 0.636296 -33.720 0.388127 17.878
72513750 0.279112 -38.661 0.733009 -63.618 0.637174 -34.206 0.387469 17.558
73013500 0.277662 -38.644 0.732793 -63.936 0.638051 -34.691 0.386789 17.239
73513250 0.276225 -38.630 0.732595 -64.255 0.638926 -35.175 0.386089 16.920
74013000 0.274801 -38.621 0.732416 -64.575 0.639801 -35.659 0.385367 16.602
74512750 0.273388 -38.617 0.732254 -64.896 0.640676 -36.143 0.384623 16.284
75012500 0.271985 -38.617 0.732110 -65.219 0.641549 -36.626 0.383858 15.967
75512250 0.270593 -38.622 0.731984 -65.542 0.642423 -37.109 0.383070 15.649
76012000 0.269210 -38.632 0.731875 -65.867 0.643296 -37.591 0.382259 15.332
76511750 0.267835 -38.647 0.731782 -66.193 0.644169 -38.073 0.381427 15.015
77011500 0.266468 -38.667 0.731707 -66.521 0.645043 -38.554 0.380571 14.699
77511250 0.265108 -38.692 0.731647 -66.850 0.645916 -39.036 0.379692 14.382
78011000 0.263753 -38.723 0.731604 -67.180 0.646790 -39.517 0.378790 14.065
78510750 0.262404 -38.759 0.731577 -67.511 0.647664 -39.998 0.377864 13.749
79010500 0.261060 -38.801 0.731566 -67.843 0.648539 -40.479 0.376914 13.432
79510250 0.259719 -38.849 0.731570 -68.177 0.649414 -40.959 0.375941 13.115
80010000 0.258382 -38.902 0.731589 -68.513 0.650291 -41.440 0.374943 12.798
80509750 0.257047 -38.962 0.731624 -68.849 0.651168 -41.920 0.373920 12.481
81009500 0.255713 -39.027 0.731673 -69.187 0.652046 -42.400 0.372873 12.163
81509250 0.254381 -39.099 0.731737 -69.527 0.652925 -42.881 0.371800 11.845
82009000 0.253048 -39.176 0.731816 -69.867 0.653805 -43.361 0.370702 11.527
82508750 0.251716 -39.261 0.731909 -70.210 0.654686 -43.842 0.369578 11.208
83008500 0.250382 -39.352 0.732015 -70.553 0.655568 -44.322 0.368428 10.889
83508250 0.249046 -39.449 0.732136 -70.898 0.656452 -44.803 0.367252 10.570
84008000 0.247708 -39.553 0.732270 -71.245 0.657337 -45.284 0.366049 10.250
84507750 0.246367 -39.665 0.732418 -71.593 0.658224 -45.765 0.364819 9.929
85007500 0.245023 -39.783 0.732578 -71.942 0.659112 -46.246 0.363562 9.608
85507250 0.243673 -39.908 0.732752 -72.293 0.660001 -46.728 0.362277 9.286
86007000 0.242319 -40.041 0.732939 -72.645 0.660892 -47.209 0.360965 8.963
86506750 0.240960 -40.181 0.733138 -72.999 0.661785 -47.691 0.359625 8.640
87006500 0.239594 -40.329 0.733350 -73.355 0.662679 -48.174 0.358255 8.316
87506250 0.238221 -40.484 0.733574 -73.712 0.663575 -48.657 0.356858 7.991
88006000 0.236840 -40.647 0.733809 -74.070 0.664473 -49.140 0.355431 7.665
88505750 0.235452 -40.818 0.734057 -74.431 0.665372 -49.623 0.353974 7.338
89005500 0.234055 -40.998 0.734317 -74.792 0.666273 -50.108 0.352488 7.010
89505250 0.232649 -41.186 0.734587 -75.156 0.667175 -50.592 0.350971 6.681
90005000 0.231234 -41.382 0.734869 -75.521 0.668079 -51.077 0.349424 6.351
90504750 0.229808 -41.587 0.735162 -75.888 0.668985 -51.563 0.347846 6.020
91004500 0.228371 -41.800 0.735466 -76.256 0.669893 -52.049 0.346237 5.688
91504250 0.226923 -42.023 0.735780 -76.626 0.670802 -52.536 0.344596 5.355
92004000 0.225464 -42.255 0.736105 -76.998 0.671712 -53.023 0.342924 5.020
92503750 0.223992 -42.496 0.736440 -77.371 0.672625 -53.512 0.341219 4.684
93003500 0.222507 -42.747 0.736785 -77.746 0.673538 -54.000 0.339481 4.347
93503250 0.221009 -43.008 0.737140 -78.123 0.674454 -54.490 0.337710 4.009
94003000 0.219497 -43.279 0.737504 -78.502 0.675370 -54.980 0.335905 3.669
94502750 0.217972 -43.560 0.737878 -78.882 0.676288 -55.472 0.334067 3.327
95002500 0.216431 -43.852 0.738260 -79.265 0.677208 -55.964 0.332195 2.985
95502250 0.214876 -44.154 0.738652 -79.649 0.678128 -56.456 0.330288 2.640
96002000 0.213306 -44.467 0.739052 -80.035 0.679050 -56.950 0.328345 2.294
96501750 0.211720 -44.792 0.739461 -80.422 0.679973 -57.445 0.326368 1.947
97001500 0.210117 -45.128 0.739878 -80.812 0.680897 -57.940 0.324354 1.597
97501250 0.208499 -45.477 0.740303 -81.203 0.681822 -58.437 0.322304 1.246
98001000 0.206863 -45.837 0.740735 -81.597 0.682747 -58.934 0.320218 0.893
98500750 0.205211 -46.210 0.741175 -81.992 0.683674 -59.433 0.318094 0.539
99000500 0.203541 -46.596 0.741623 -82.390 0.684601 -59.932 0.315933 0.182
99500250 0.201854 -46.995 0.742077 -82.789 0.685528 -60.433 0.313734 -0.176
100000000 0.200149 -47.408 0.742538 -83.190 0.686456 -60.935 0.311497 -0.536
