! 01-2-3 エミッタ接地増幅 (CH1 の 50 Ω を負荷にする) の計算値 — 実測ではない
! ハイブリッド π: Ic 0.93 mA, gm 35.8 mA/V, hFE 150, fT 45 MHz (Ic 0.93 mA のとき), Cob 4 pF (VCB 約 1.3 V), rbb' 50 Ω
! 回路: R1 20k / R2 10k, RC 2.2k, RE 1k || CE 100 uF, CIN/COUT 1 uF
! 板とクリップの寄生分: クリップのリード 80 nH ずつ (入力・出力)、各節点の浮遊容量 5 pF
# HZ S MA R 50
50000 0.962158 -0.257 3.390302 179.956 0.000119 89.892 0.955544 -0.054
549750 0.961198 -2.778 3.387289 177.182 0.001308 87.199 0.955355 -0.552
1049500 0.958649 -5.295 3.379269 174.601 0.002492 84.641 0.954857 -1.052
1549250 0.954546 -7.798 3.366356 172.040 0.003664 82.100 0.954055 -1.547
2049000 0.948939 -10.282 3.348722 169.501 0.004821 79.581 0.952965 -2.037
2548750 0.941898 -12.741 3.326592 166.987 0.005957 77.089 0.951602 -2.519
3048500 0.933507 -15.169 3.300239 164.506 0.007069 74.628 0.949988 -2.991
3548250 0.923862 -17.561 3.269977 162.061 0.008152 72.203 0.948146 -3.454
4048000 0.913068 -19.913 3.236149 159.657 0.009204 69.819 0.946102 -3.904
4547750 0.901238 -22.222 3.199121 157.297 0.010222 67.480 0.943882 -4.343
5047500 0.888487 -24.483 3.159266 154.985 0.011204 65.188 0.941513 -4.769
5547250 0.874931 -26.696 3.116961 152.724 0.012149 62.947 0.939023 -5.181
6047000 0.860684 -28.857 3.072577 150.515 0.013055 60.758 0.936436 -5.580
6546750 0.845858 -30.965 3.026474 148.360 0.013922 58.623 0.933778 -5.966
7046500 0.830557 -33.020 2.978993 146.260 0.014749 56.543 0.931072 -6.339
7546250 0.814882 -35.021 2.930455 144.216 0.015538 54.519 0.928338 -6.700
8046000 0.798924 -36.968 2.881157 142.227 0.016288 52.550 0.925594 -7.048
8545750 0.782768 -38.861 2.831369 140.293 0.017001 50.637 0.922857 -7.384
9045500 0.766490 -40.701 2.781335 138.415 0.017677 48.778 0.920142 -7.710
9545250 0.750159 -42.489 2.731275 136.590 0.018318 46.974 0.917460 -8.025
10045000 0.733834 -44.226 2.681380 134.818 0.018925 45.222 0.914822 -8.331
10544750 0.717569 -45.914 2.631817 133.098 0.019499 43.522 0.912236 -8.627
11044500 0.701409 -47.554 2.582732 131.428 0.020042 41.873 0.909708 -8.916
11544250 0.685395 -49.148 2.534247 129.807 0.020556 40.272 0.907244 -9.197
12044000 0.669559 -50.697 2.486465 128.234 0.021041 38.718 0.904847 -9.471
12543750 0.653929 -52.204 2.439473 126.706 0.021500 37.210 0.902520 -9.739
13043500 0.638528 -53.669 2.393338 125.222 0.021934 35.746 0.900264 -10.001
13543250 0.623374 -55.096 2.348116 123.780 0.022344 34.325 0.898081 -10.259
14043000 0.608482 -56.485 2.303850 122.379 0.022731 32.944 0.895970 -10.512
14542750 0.593863 -57.838 2.260570 121.017 0.023098 31.602 0.893931 -10.761
15042500 0.579526 -59.158 2.218299 119.692 0.023445 30.297 0.891962 -11.007
15542250 0.565475 -60.446 2.177049 118.403 0.023773 29.028 0.890062 -11.250
16042000 0.551714 -61.704 2.136826 117.148 0.024084 27.794 0.888230 -11.490
16541750 0.538245 -62.933 2.097632 115.926 0.024379 26.592 0.886462 -11.728
17041500 0.525067 -64.135 2.059460 114.735 0.024658 25.421 0.884758 -11.965
17541250 0.512180 -65.313 2.022302 113.575 0.024923 24.281 0.883115 -12.199
18041000 0.499579 -66.467 1.986145 112.443 0.025175 23.169 0.881530 -12.433
18540750 0.487263 -67.598 1.950972 111.338 0.025414 22.084 0.880001 -12.665
19040500 0.475226 -68.710 1.916767 110.259 0.025641 21.025 0.878526 -12.897
19540250 0.463463 -69.802 1.883509 109.205 0.025858 19.991 0.877102 -13.128
20040000 0.451970 -70.876 1.851177 108.175 0.026064 18.981 0.875726 -13.359
20539750 0.440740 -71.935 1.819748 107.167 0.026260 17.994 0.874397 -13.589
21039500 0.429768 -72.978 1.789200 106.181 0.026447 17.028 0.873111 -13.820
21539250 0.419047 -74.008 1.759509 105.216 0.026626 16.083 0.871868 -14.050
22039000 0.408571 -75.025 1.730650 104.270 0.026797 15.157 0.870664 -14.281
22538750 0.398334 -76.032 1.702601 103.344 0.026960 14.251 0.869497 -14.513
23038500 0.388329 -77.028 1.675336 102.435 0.027116 13.362 0.868366 -14.744
23538250 0.378551 -78.017 1.648832 101.543 0.027266 12.491 0.867268 -14.977
24038000 0.368993 -78.997 1.623066 100.668 0.027410 11.636 0.866202 -15.210
24537750 0.359648 -79.972 1.598015 99.809 0.027547 10.796 0.865165 -15.444
25037500 0.350511 -80.941 1.573655 98.964 0.027680 9.972 0.864157 -15.678
25537250 0.341576 -81.907 1.549965 98.134 0.027807 9.162 0.863175 -15.914
26037000 0.332838 -82.870 1.526923 97.318 0.027930 8.366 0.862218 -16.150
26536750 0.324290 -83.832 1.504507 96.515 0.028048 7.583 0.861285 -16.387
27036500 0.315928 -84.793 1.482697 95.724 0.028161 6.812 0.860374 -16.626
27536250 0.307746 -85.755 1.461474 94.945 0.028271 6.054 0.859483 -16.865
28036000 0.299740 -86.720 1.440818 94.178 0.028377 5.307 0.858612 -17.106
28535750 0.291905 -87.688 1.420709 93.422 0.028480 4.571 0.857759 -17.348
29035500 0.284236 -88.660 1.401131 92.677 0.028579 3.845 0.856923 -17.591
29535250 0.276729 -89.639 1.382065 91.941 0.028675 3.130 0.856103 -17.835
30035000 0.269380 -90.624 1.363494 91.215 0.028768 2.424 0.855298 -18.080
30534750 0.262185 -91.619 1.345403 90.499 0.028859 1.728 0.854507 -18.327
31034500 0.255140 -92.623 1.327775 89.792 0.028947 1.041 0.853729 -18.575
31534250 0.248242 -93.639 1.310595 89.093 0.029032 0.362 0.852963 -18.824
32034000 0.241489 -94.668 1.293848 88.402 0.029115 -0.309 0.852208 -19.075
32533750 0.234876 -95.712 1.277521 87.719 0.029196 -0.972 0.851464 -19.327
33033500 0.228401 -96.772 1.261599 87.044 0.029275 -1.627 0.850730 -19.581
33533250 0.222063 -97.850 1.246070 86.375 0.029351 -2.275 0.850004 -19.836
34033000 0.215857 -98.947 1.230921 85.714 0.029426 -2.916 0.849287 -20.092
34532750 0.209783 -100.066 1.216139 85.060 0.029500 -3.550 0.848578 -20.350
35032500 0.203839 -101.209 1.201713 84.412 0.029571 -4.178 0.847875 -20.610
35532250 0.198022 -102.378 1.187632 83.770 0.029641 -4.800 0.847179 -20.870
36032000 0.192333 -103.574 1.173884 83.134 0.029710 -5.416 0.846488 -21.133
36531750 0.186770 -104.801 1.160460 82.503 0.029778 -6.026 0.845803 -21.397
37031500 0.181331 -106.060 1.147348 81.879 0.029844 -6.631 0.845123 -21.662
37531250 0.176018 -107.354 1.134541 81.259 0.029908 -7.230 0.844447 -21.929
38031000 0.170829 -108.687 1.122027 80.644 0.029972 -7.825 0.843775 -22.198
38530750 0.165764 -110.060 1.109798 80.035 0.030035 -8.415 0.843106 -22.468
39030500 0.160826 -111.477 1.097846 79.430 0.030096 -9.000 0.842440 -22.740
39530250 0.156013 -112.940 1.086162 78.829 0.030157 -9.580 0.841776 -23.013
40030000 0.151328 -114.454 1.074738 78.233 0.030217 -10.156 0.841114 -23.288
40529750 0.146771 -116.021 1.063566 77.641 0.030276 -10.728 0.840455 -23.565
41029500 0.142346 -117.645 1.052639 77.052 0.030334 -11.296 0.839796 -23.843
41529250 0.138053 -119.329 1.041949 76.468 0.030391 -11.861 0.839139 -24.123
42029000 0.133897 -121.078 1.031490 75.887 0.030448 -12.421 0.838482 -24.405
42528750 0.129880 -122.894 1.021255 75.310 0.030504 -12.978 0.837825 -24.689
43028500 0.126006 -124.781 1.011237 74.736 0.030559 -13.532 0.837169 -24.974
43528250 0.122279 -126.743 1.001431 74.166 0.030614 -14.082 0.836512 -25.261
44028000 0.118703 -128.783 0.991829 73.598 0.030668 -14.630 0.835855 -25.550
44527750 0.115284 -130.904 0.982427 73.034 0.030722 -15.174 0.835197 -25.841
45027500 0.112026 -133.108 0.973219 72.472 0.030775 -15.715 0.834538 -26.133
45527250 0.108936 -135.399 0.964200 71.914 0.030828 -16.254 0.833877 -26.427
46027000 0.106019 -137.777 0.955363 71.358 0.030881 -16.790 0.833215 -26.723
46526750 0.103281 -140.242 0.946705 70.804 0.030933 -17.324 0.832551 -27.021
47026500 0.100729 -142.796 0.938220 70.253 0.030984 -17.855 0.831885 -27.321
47526250 0.098369 -145.435 0.929903 69.704 0.031036 -18.383 0.831217 -27.623
48026000 0.096208 -148.157 0.921751 69.158 0.031087 -18.910 0.830546 -27.927
48525750 0.094250 -150.957 0.913759 68.613 0.031137 -19.434 0.829872 -28.232
49025500 0.092502 -153.830 0.905921 68.071 0.031188 -19.956 0.829196 -28.540
49525250 0.090968 -156.769 0.898236 67.531 0.031238 -20.476 0.828516 -28.850
50025000 0.089652 -159.763 0.890697 66.992 0.031288 -20.995 0.827833 -29.161
50524750 0.088556 -162.802 0.883303 66.455 0.031338 -21.511 0.827147 -29.475
51024500 0.087683 -165.875 0.876048 65.921 0.031388 -22.026 0.826457 -29.791
51524250 0.087031 -168.969 0.868929 65.387 0.031437 -22.539 0.825763 -30.109
52024000 0.086601 -172.069 0.861943 64.855 0.031486 -23.051 0.825065 -30.429
52523750 0.086389 -175.162 0.855087 64.325 0.031536 -23.561 0.824363 -30.751
53023500 0.086392 -178.235 0.848357 63.796 0.031585 -24.070 0.823656 -31.075
53523250 0.086603 178.726 0.841749 63.269 0.031634 -24.577 0.822946 -31.401
54023000 0.087015 175.733 0.835262 62.743 0.031683 -25.083 0.822230 -31.730
54522750 0.087621 172.797 0.828892 62.218 0.031731 -25.588 0.821510 -32.061
55022500 0.088413 169.928 0.822636 61.694 0.031780 -26.092 0.820785 -32.394
55522250 0.089379 167.135 0.816492 61.171 0.031829 -26.595 0.820054 -32.729
56022000 0.090511 164.423 0.810456 60.649 0.031877 -27.096 0.819319 -33.067
56521750 0.091799 161.798 0.804526 60.129 0.031926 -27.597 0.818578 -33.407
57021500 0.093231 159.264 0.798700 59.609 0.031975 -28.097 0.817832 -33.750
57521250 0.094798 156.821 0.792975 59.090 0.032023 -28.596 0.817080 -34.095
58021000 0.096489 154.472 0.787348 58.572 0.032072 -29.094 0.816322 -34.442
58520750 0.098295 152.216 0.781818 58.054 0.032120 -29.591 0.815559 -34.792
59020500 0.100207 150.052 0.776382 57.537 0.032169 -30.088 0.814789 -35.144
59520250 0.102215 147.979 0.771038 57.021 0.032218 -30.584 0.814014 -35.499
60020000 0.104311 145.993 0.765784 56.506 0.032266 -31.079 0.813232 -35.856
60519750 0.106487 144.092 0.760618 55.991 0.032315 -31.574 0.812444 -36.216
61019500 0.108737 142.273 0.755538 55.476 0.032364 -32.069 0.811649 -36.578
61519250 0.111052 140.532 0.750541 54.962 0.032412 -32.563 0.810848 -36.943
62019000 0.113427 138.867 0.745626 54.448 0.032461 -33.057 0.810041 -37.311
62518750 0.115857 137.273 0.740791 53.935 0.032510 -33.550 0.809226 -37.682
63018500 0.118335 135.747 0.736035 53.422 0.032559 -34.043 0.808405 -38.055
63518250 0.120856 134.285 0.731355 52.909 0.032608 -34.536 0.807577 -38.431
64018000 0.123417 132.885 0.726750 52.396 0.032657 -35.028 0.806741 -38.810
64517750 0.126014 131.542 0.722218 51.884 0.032706 -35.521 0.805899 -39.191
65017500 0.128641 130.255 0.717758 51.371 0.032756 -36.013 0.805049 -39.576
65517250 0.131297 129.019 0.713368 50.859 0.032805 -36.505 0.804193 -39.963
66017000 0.133977 127.832 0.709046 50.347 0.032854 -36.997 0.803328 -40.354
66516750 0.136680 126.691 0.704792 49.835 0.032904 -37.489 0.802456 -40.747
67016500 0.139401 125.593 0.700603 49.323 0.032954 -37.982 0.801577 -41.144
67516250 0.142140 124.537 0.696478 48.810 0.033003 -38.474 0.800690 -41.543
68016000 0.144894 123.520 0.692416 48.298 0.033053 -38.966 0.799795 -41.946
68515750 0.147660 122.539 0.688416 47.785 0.033103 -39.459 0.798893 -42.351
69015500 0.150438 121.594 0.684475 47.272 0.033153 -39.951 0.797982 -42.760
69515250 0.153225 120.681 0.680594 46.759 0.033203 -40.444 0.797064 -43.173
70015000 0.156020 119.799 0.676770 46.246 0.033254 -40.938 0.796137 -43.588
70514750 0.158822 118.946 0.673003 45.732 0.033304 -41.431 0.795203 -44.007
71014500 0.161629 118.121 0.669291 45.218 0.033354 -41.925 0.794260 -44.429
71514250 0.164440 117.323 0.665632 44.704 0.033405 -42.419 0.793309 -44.855
72014000 0.167254 116.549 0.662027 44.189 0.033456 -42.914 0.792349 -45.284
72513750 0.170070 115.799 0.658474 43.674 0.033506 -43.409 0.791382 -45.716
73013500 0.172888 115.071 0.654971 43.159 0.033557 -43.905 0.790406 -46.152
73513250 0.175706 114.365 0.651518 42.643 0.033608 -44.401 0.789421 -46.592
74013000 0.178524 113.679 0.648114 42.126 0.033659 -44.897 0.788428 -47.035
74512750 0.181341 113.012 0.644758 41.609 0.033710 -45.394 0.787426 -47.482
75012500 0.184157 112.364 0.641448 41.091 0.033762 -45.892 0.786416 -47.932
75512250 0.186970 111.732 0.638183 40.572 0.033813 -46.391 0.785397 -48.387
76012000 0.189781 111.118 0.634964 40.053 0.033864 -46.890 0.784370 -48.845
76511750 0.192589 110.519 0.631788 39.533 0.033916 -47.390 0.783333 -49.307
77011500 0.195394 109.935 0.628655 39.013 0.033968 -47.890 0.782288 -49.773
77511250 0.198194 109.366 0.625565 38.491 0.034019 -48.391 0.781234 -50.243
78011000 0.200991 108.810 0.622515 37.969 0.034071 -48.893 0.780172 -50.717
78510750 0.203783 108.268 0.619505 37.446 0.034123 -49.396 0.779100 -51.195
79010500 0.206570 107.738 0.616535 36.922 0.034175 -49.900 0.778020 -51.677
79510250 0.209352 107.220 0.613604 36.398 0.034227 -50.405 0.776931 -52.164
80010000 0.212129 106.713 0.610710 35.872 0.034279 -50.910 0.775833 -52.654
80509750 0.214900 106.218 0.607853 35.346 0.034331 -51.417 0.774726 -53.149
81009500 0.217665 105.732 0.605033 34.818 0.034383 -51.924 0.773610 -53.648
81509250 0.220425 105.257 0.602248 34.290 0.034435 -52.433 0.772485 -54.152
82009000 0.223178 104.792 0.599497 33.760 0.034487 -52.942 0.771352 -54.660
82508750 0.225925 104.336 0.596781 33.229 0.034540 -53.453 0.770209 -55.172
83008500 0.228665 103.889 0.594098 32.698 0.034592 -53.964 0.769058 -55.690
83508250 0.231399 103.450 0.591447 32.165 0.034644 -54.477 0.767898 -56.211
84008000 0.234126 103.020 0.588828 31.631 0.034696 -54.991 0.766729 -56.738
84507750 0.236846 102.598 0.586240 31.096 0.034749 -55.506 0.765551 -57.269
85007500 0.239560 102.183 0.583683 30.560 0.034801 -56.022 0.764365 -57.805
85507250 0.242266 101.776 0.581155 30.022 0.034853 -56.540 0.763170 -58.346
86007000 0.244965 101.375 0.578656 29.483 0.034905 -57.059 0.761967 -58.891
86506750 0.247657 100.982 0.576186 28.943 0.034958 -57.579 0.760755 -59.442
87006500 0.250342 100.595 0.573743 28.402 0.035010 -58.100 0.759535 -59.998
87506250 0.253020 100.214 0.571327 27.859 0.035062 -58.622 0.758306 -60.559
88006000 0.255690 99.840 0.568938 27.315 0.035114 -59.146 0.757069 -61.125
88505750 0.258353 99.471 0.566575 26.770 0.035166 -59.672 0.755824 -61.696
89005500 0.261008 99.108 0.564237 26.223 0.035218 -60.199 0.754570 -62.273
89505250 0.263656 98.751 0.561924 25.675 0.035270 -60.727 0.753309 -62.855
90005000 0.266296 98.399 0.559635 25.125 0.035321 -61.257 0.752040 -63.442
90504750 0.268929 98.052 0.557369 24.574 0.035373 -61.788 0.750763 -64.035
91004500 0.271554 97.710 0.555126 24.021 0.035424 -62.320 0.749478 -64.634
91504250 0.274172 97.373 0.552905 23.467 0.035475 -62.855 0.748187 -65.238
92004000 0.276782 97.041 0.550706 22.911 0.035526 -63.390 0.746887 -65.847
92503750 0.279384 96.713 0.548529 22.354 0.035577 -63.928 0.745581 -66.463
93003500 0.281979 96.390 0.546371 21.795 0.035628 -64.467 0.744268 -67.084
93503250 0.284566 96.071 0.544234 21.234 0.035679 -65.007 0.742948 -67.712
94003000 0.287145 95.756 0.542116 20.672 0.035729 -65.549 0.741621 -68.345
94502750 0.289717 95.445 0.540018 20.108 0.035779 -66.093 0.740288 -68.984
95002500 0.292281 95.138 0.537937 19.542 0.035829 -66.639 0.738949 -69.629
95502250 0.294837 94.834 0.535875 18.975 0.035878 -67.186 0.737605 -70.281
96002000 0.297386 94.535 0.533829 18.406 0.035928 -67.735 0.736254 -70.939
96501750 0.299927 94.239 0.531801 17.835 0.035976 -68.286 0.734898 -71.603
97001500 0.302460 93.946 0.529789 17.262 0.036025 -68.839 0.733537 -72.273
97501250 0.304986 93.657 0.527792 16.688 0.036073 -69.393 0.732172 -72.950
98001000 0.307504 93.371 0.525811 16.112 0.036121 -69.949 0.730801 -73.633
98500750 0.310014 93.089 0.523844 15.534 0.036169 -70.507 0.729427 -74.323
99000500 0.312517 92.809 0.521892 14.954 0.036216 -71.067 0.728049 -75.020
99500250 0.315012 92.533 0.519953 14.372 0.036263 -71.629 0.726667 -75.723
100000000 0.317499 92.259 0.518028 13.788 0.036309 -72.193 0.725282 -76.433
